c   #vars: 78   #clauses: 349   #literals: 982
c 
p cnf 78 349
-1 -2 0
16 55 56 -72 0
-4 -5 0
29 30 57 58 0
-6 -7 0
-8 -9 0
-10 -11 0
-12 -13 0
-14 -15 0
23 51 52 -65 0
-17 -18 0
-19 -20 0
-21 -22 0
28 55 56 -65 0
-24 -25 0
-26 -27 0
4 5 36 -72 0
-29 -30 0
-31 -32 0
-34 -35 0
14 15 -20 50 0
-37 -38 0
-39 -40 0
3 39 40 -57 0
1 2 -14 41 0
10 11 44 45 0
-42 -43 0
-44 -45 0
-46 -47 0
-48 -49 0
1 2 -6 69 0
-51 -52 0
-53 -54 0
-55 -56 0
-57 -58 0
-59 -60 0
-61 -62 0
4 5 34 35 0
-63 -64 0
-65 -66 0
-21 33 53 54 0
6 7 29 30 0
-67 -68 0
31 32 -51 70 0
-12 14 15 71 0
12 13 -14 74 0
1 2 72 73 0
-72 -73 0
-75 -76 0
-77 -78 0
1 2 -12 71 0
-1 14 15 41 0
10 11 34 35 0
-1 -31 0
-2 -32 0
31 32 53 54 0
-1 -34 0
-2 -35 0
3 57 58 -61 0
-2 -41 0
-1 -48 0
-2 -49 0
37 38 63 64 0
-1 -59 0
-2 -60 0
42 43 65 66 0
31 32 -39 70 0
-2 -69 0
39 40 -51 70 0
-8 12 13 74 0
-2 -71 0
1 2 59 60 0
-1 -72 0
-2 -73 0
1 2 34 35 0
16 -50 55 56 0
-3 -40 0
19 20 72 73 0
-1 6 7 69 0
-3 -58 0
6 7 55 56 0
-4 6 7 69 0
-3 -62 0
-4 -26 0
-5 -27 0
10 11 53 54 0
-4 -34 0
-5 -35 0
14 15 -16 50 0
-5 -36 0
26 27 65 66 0
-4 -37 0
-5 -38 0
42 43 59 60 0
17 18 59 60 0
-14 21 22 41 0
-39 51 52 70 0
-5 -69 0
-4 -77 0
-5 -78 0
39 40 77 78 0
-4 36 72 73 0
1 2 31 32 0
4 5 36 -57 0
-7 -28 0
-6 -29 0
-7 -30 0
16 -20 50 -72 0
-6 -37 0
-7 -38 0
39 40 59 60 0
3 -39 61 62 0
31 32 72 73 0
-6 -55 0
-7 -56 0
14 15 59 60 0
-6 -57 0
-7 -58 0
4 5 37 38 0
-6 -63 0
-7 -64 0
8 9 34 35 0
-31 51 52 70 0
-7 -69 0
36 -57 72 73 0
-8 -34 0
-9 -35 0
8 9 75 76 0
-8 -72 0
-9 -73 0
23 -51 65 66 0
-9 -74 0
51 52 63 64 0
-8 -75 0
-9 -76 0
24 25 29 30 0
-10 -26 0
-11 -27 0
14 15 77 78 0
-10 -34 0
-11 -35 0
-10 -42 0
-11 -43 0
-10 -44 0
-11 -45 0
-10 -53 0
-11 -54 0
-12 14 15 74 0
-10 -55 0
-11 -56 0
19 20 46 47 0
-12 -42 0
-13 -43 0
-12 -53 0
-13 -54 0
-8 14 15 74 0
-12 -63 0
-13 -64 0
26 27 55 56 0
8 9 -14 74 0
-13 -71 0
1 2 48 49 0
-13 -74 0
1 2 -21 41 0
3 -39 57 58 0
-15 -41 0
21 22 39 40 0
-14 -50 0
1 2 -4 69 0
31 32 75 76 0
-14 -59 0
-15 -60 0
12 13 42 43 0
8 9 -12 74 0
-15 -71 0
12 13 53 54 0
-15 -74 0
-14 -77 0
-15 -78 0
17 18 67 68 0
23 -48 51 52 0
4 5 -6 69 0
24 25 55 56 0
23 48 49 -65 0
-16 -56 0
4 5 77 78 0
23 48 49 -51 0
-16 -73 0
33 53 54 -63 0
-17 -31 0
-18 -32 0
4 5 26 27 0
-17 -59 0
-18 -60 0
19 20 57 58 0
-17 -67 0
-18 -68 0
-15 16 50 -55 0
-17 -75 0
-18 -76 0
6 7 57 58 0
21 22 33 -63 0
16 -50 72 73 0
21 22 33 -53 0
21 22 46 47 0
-19 -42 0
-20 -43 0
-19 -46 0
-20 -47 0
10 11 42 43 0
-19 -50 0
-1 4 5 69 0
-19 -57 0
-20 -58 0
-19 -72 0
-20 -73 0
-22 -33 0
24 25 61 62 0
-21 -39 0
-22 -40 0
8 9 72 73 0
3 -57 61 62 0
-22 -41 0
42 43 67 68 0
-21 -46 0
-22 -47 0
24 25 44 45 0
-21 -67 0
-22 -68 0
44 45 55 56 0
-6 28 55 56 0
-23 -49 0
46 47 72 73 0
28 -55 65 66 0
-23 -52 0
39 40 67 68 0
-6 28 65 66 0
-23 -66 0
33 -53 63 64 0
-24 -29 0
-25 -30 0
-24 -37 0
-25 -38 0
-15 16 50 -72 0
-24 -44 0
-25 -45 0
23 -48 65 66 0
-24 -55 0
-25 -56 0
-24 -61 0
-25 -62 0
-26 -55 0
-27 -56 0
16 -20 50 -55 0
-26 -65 0
-27 -66 0
36 57 58 -72 0
-28 -56 0
42 43 57 58 0
-4 36 57 58 0
-28 -66 0
24 25 37 38 0
-29 -57 0
-30 -58 0
37 38 61 62 0
-29 -63 0
-30 -64 0
34 35 65 66 0
-31 -53 0
-32 -54 0
1 2 -14 71 0
-1 14 15 71 0
-32 -70 0
34 35 77 78 0
-31 -72 0
-32 -73 0
10 11 26 27 0
-31 -75 0
-32 -76 0
14 15 -21 41 0
-33 -54 0
-33 -64 0
21 22 67 68 0
-34 -65 0
-35 -66 0
16 -55 72 73 0
-34 -77 0
-35 -78 0
-31 39 40 70 0
-16 19 20 50 0
-36 -58 0
17 18 31 32 0
-15 19 20 50 0
-36 -73 0
46 47 53 54 0
-37 -61 0
-38 -62 0
6 7 28 -55 0
-37 -63 0
-38 -64 0
29 30 63 64 0
-39 -59 0
-40 -60 0
51 52 75 76 0
-39 -67 0
-40 -68 0
12 13 -14 71 0
-40 -70 0
10 11 55 56 0
-39 -77 0
-40 -78 0
-1 21 22 41 0
3 39 40 -61 0
48 49 59 60 0
-42 -57 0
-43 -58 0
12 13 63 64 0
-42 -59 0
-43 -60 0
44 45 67 68 0
-42 -65 0
-43 -66 0
17 18 75 76 0
-42 -67 0
-43 -68 0
19 20 42 43 0
-44 -55 0
-45 -56 0
-44 -67 0
-45 -68 0
-46 -53 0
-47 -54 0
6 7 37 38 0
-46 -72 0
-47 -73 0
6 7 28 -65 0
-48 -59 0
-49 -60 0
-21 33 63 64 0
-48 -61 0
-49 -62 0
48 49 61 62 0
-51 -63 0
-52 -64 0
6 7 63 64 0
-1 12 13 71 0
-52 -70 0
-51 -75 0
-52 -76 0
